SPARKNaCl/why3-cvc5/sparknacl-mac.adb_223_71_range_check_1.smt2
;; produced by cvc5.drv ;;
(set-logic ALL)
(set-info :smt-lib-version 2.6)
;;; generated by SMT-LIB2 driver
;;; SMT-LIB2 driver: bit-vectors, common part
;;; SMT-LIB2: integer arithmetic
;; "length"
(define-fun length ((x Int) (y Int)) Int
  (ite (<= x y) (+ (- y x) 1) 0))

;; "pow2"
(declare-fun pow2 (Int) Int)

(declare-const two_power_size_minus_one Int)

;; "two_power_size_minus_one_val"
(assert (= two_power_size_minus_one (pow2 (- 8 1))))

;; "min"
(define-fun min ((x Int) (y Int)) Int
  (ite (<= x y) x y))

;; "max"
(define-fun max ((x Int) (y Int)) Int
  (ite (<= x y) y x))

;; "Min_r"
(assert (forall ((x Int) (y Int)) (=> (<= y x) (= (min x y) y))))

;; "Max_l"
(assert (forall ((x Int) (y Int)) (=> (<= y x) (= (max x y) x))))

;; "Min_comm"
(assert (forall ((x Int) (y Int)) (= (min x y) (min y x))))

;; "Max_comm"
(assert (forall ((x Int) (y Int)) (= (max x y) (max y x))))

;; "Min_assoc"
(assert
  (forall ((x Int) (y Int) (z Int)) (= (min (min x y) z) (min x (min y z)))))

;; "Max_assoc"
(assert
  (forall ((x Int) (y Int) (z Int)) (= (max (max x y) z) (max x (max y z)))))

(declare-sort tinteger_32B 0)

;; "tinteger_32B'int"
(declare-fun tinteger_32Bqtint (tinteger_32B) Int)

;; "tinteger_32B'axiom"
(assert
  (forall ((i tinteger_32B))
    (and
      (<= (- 2147483648) (tinteger_32Bqtint i))
      (<= (tinteger_32Bqtint i) 2147483647))))

;; "in_range"
(define-fun in_range ((x Int)) Bool
  (and (<= (- 2147483648) x) (<= x 2147483647)))

;; "to_rep"
(define-fun to_rep ((x tinteger_32B)) Int
  (tinteger_32Bqtint x))

;; "of_rep"
(declare-fun of_rep (Int) tinteger_32B)

;; "inversion_axiom"
(assert
  (forall ((x tinteger_32B))
    (! (= (of_rep (to_rep x)) x) :pattern ((to_rep x)) )))

;; "range_axiom"
(assert
  (forall ((x tinteger_32B))
    (! (in_range (to_rep x)) :pattern ((to_rep x)) )))

;; "coerce_axiom"
(assert
  (forall ((x Int))
    (! (=> (in_range x) (= (to_rep (of_rep x)) x)) :pattern ((to_rep
                                                               (of_rep x))) )))

;; "in_range"
(define-fun in_range1 ((x Int)) Bool
  (and (<= 0 x) (<= x 2147483647)))

(declare-sort byte 0)

;; "to_rep"
(declare-fun to_rep1 (byte) (_ BitVec 8))

;; "of_rep"
(declare-fun of_rep1 ((_ BitVec 8)) byte)

;; "inversion_axiom"
(assert
  (forall ((x byte)) (! (= (of_rep1 (to_rep1 x)) x) :pattern ((to_rep1 x)) )))

;; "range_axiom"
(assert true)

;; "coerce_axiom"
(assert
  (forall ((x (_ BitVec 8)))
    (! (= (to_rep1 (of_rep1 x)) x) :pattern ((to_rep1 (of_rep1 x))) )))

(declare-sort map1 0)

;; "has_bounds"
(declare-fun has_bounds (map1
  Int
  Int) Bool)

;; "get"
(declare-fun get (map1
  Int) byte)

;; "set"
(declare-fun set (map1
  Int
  byte) map1)

;; "set_eq"
(assert
  (forall ((a map1) (i Int) (v byte))
    (! (= (get (set a i v) i) v) :pattern ((set a i v)) )))

;; "set_neq"
(assert
  (forall ((a map1) (i Int) (v byte))
    (! (forall ((j Int))
         (! (=> (not (= i j)) (= (get (set a i v) j) (get a j))) :pattern (
         (get
           a
           j)) :pattern ((get (set a i v) j)) )) :pattern ((set a i v)) )))

;; "set_has_bounds"
(assert
  (forall ((a map1) (i Int) (f Int) (l Int) (v byte))
    (! (=>
         (and (<= f i) (<= i l))
         (=> (has_bounds a f l) (has_bounds (set a i v) f l))) :pattern (
    (has_bounds
      (set a i v)
      f
      l)) )))

;; "slide"
(declare-fun slide (map1
  Int
  Int) map1)

;; "slide_eq"
(assert
  (forall ((a map1) (first Int))
    (! (= (slide a first first) a) :pattern ((slide a first first)) )))

;; "slide_def"
(assert
  (forall ((a map1) (old_first Int) (new_first Int))
    (! (and
         (forall ((i Int))
           (! (= (get (slide a old_first new_first) i) (get
                                                         a
                                                         (- i (- new_first old_first)))) :pattern (
           (get
             (slide a old_first new_first)
             i)) ))
         (forall ((new_last Int))
           (! (=>
                (has_bounds a old_first (- new_last (- new_first old_first)))
                (has_bounds (slide a old_first new_first) new_first new_last)) :pattern (
           (has_bounds
             (slide a old_first new_first)
             new_first
             new_last)) ))) :pattern ((slide a old_first new_first)) )))

(declare-datatypes ((t 0))
  (((tqtmk (rec__first tinteger_32B)(rec__last tinteger_32B)))))

;; "mk"
(declare-fun mk (Int
  Int) t)

;; "mk_def"
(assert
  (forall ((f Int) (l Int))
    (! (=>
         (in_range f)
         (=>
           (in_range l)
           (and
             (= (to_rep (rec__first (mk f l))) f)
             (= (to_rep (rec__last (mk f l))) l)))) :pattern ((mk f l)) )))

;; "dynamic_property"
(define-fun dynamic_property ((range_first Int) (range_last Int) (low Int) (high Int)) Bool
  (and
    (in_range low)
    (and
      (in_range high)
      (=> (<= low high) (and (in_range1 low) (in_range1 high))))))

(declare-datatypes ((us_t 0))
  (((us_tqtmk (elts map1)(rt t)))))

;; "to_array"
(define-fun to_array ((a us_t)) map1
  (elts a))

;; "of_array"
(define-fun of_array ((a map1) (f Int) (l Int)) us_t
  (us_tqtmk a (mk f l)))

;; "first"
(define-fun first ((a us_t)) Int
  (to_rep (rec__first (rt a))))

;; "last"
(define-fun last ((a us_t)) Int
  (to_rep (rec__last (rt a))))

;; "length"
(define-fun length1 ((a us_t)) Int
  (ite (<= (first a) (last a)) (+ (- (last a) (first a)) 1) 0))

;; "well_formed"
(define-fun well_formed ((a us_t)) Bool
  (has_bounds
    (elts a)
    (to_rep (rec__first (rt a)))
    (to_rep (rec__last (rt a)))))

(declare-sort map2 0)

;; "has_bounds"
(declare-fun has_bounds1 (map2
  Int
  Int) Bool)

(declare-const m us_t)

(declare-const k us_t)

;; "hash"
(declare-fun hash (us_t) map1)

;; "hash__function_guard"
(declare-fun hash__function_guard (map1
  us_t) Bool)

;; "dynamic_invariant"
(define-fun dynamic_invariant ((temp___expr_252 us_t) (temp___is_init_248 Bool) (temp___skip_constant_249 Bool) (temp___do_toplevel_250 Bool) (temp___do_typ_inv_251 Bool)) Bool
  (and
    (=>
      (not (= temp___skip_constant_249 true))
      (dynamic_property
        0
        2147483647
        (first temp___expr_252)
        (last temp___expr_252)))
    (well_formed temp___expr_252)))

;; "ada___sparknacl__mac__hmac_sha_256__ipad__aggregate_def"
(declare-fun ada___sparknacl__mac__hmac_sha_256__ipad__aggregate_def ((_ BitVec 8)) map1)

;; "ada___sparknacl__mac__hmac_sha_256__opad__aggregate_def"
(declare-fun ada___sparknacl__mac__hmac_sha_256__opad__aggregate_def ((_ BitVec 8)) map1)

;; "ada___sparknacl__mac__hmac_sha_256__key__aggregate_def"
(declare-fun ada___sparknacl__mac__hmac_sha_256__key__aggregate_def ((_ BitVec 8)) map1)

;; Goal "def'vc"
;; File "sparknacl-mac.ads", line 43, characters 0-0
(assert
  (not
  (forall ((output map2))
    (=>
      (has_bounds1 output 0 31)
      (=>
        (dynamic_invariant m true false true true)
        (=>
          (dynamic_invariant k true false true true)
          (=>
            (and
              (and (= (first m) 0) (<= (last m) 2147483583))
              (=> (< 0 (length1 k)) (= (first k) 0)))
            (forall ((temp___851 map1))
              (=>
                (and
                  (and
                    (has_bounds temp___851 0 63)
                    (forall ((temp___850 Int))
                      (! (=>
                           (and (<= 0 temp___850) (<= temp___850 63))
                           (= (to_rep1 (get temp___851 temp___850)) #x36)) :pattern (
                      (get
                        temp___851
                        temp___850)) )))
                  (= temp___851 (ada___sparknacl__mac__hmac_sha_256__ipad__aggregate_def
                                  #x36)))
                (forall ((ipad map1))
                  (=>
                    (= ipad temp___851)
                    (=>
                      (has_bounds ipad 0 63)
                      (forall ((temp___858 map1))
                        (=>
                          (and
                            (and
                              (has_bounds temp___858 0 63)
                              (forall ((temp___857 Int))
                                (! (=>
                                     (and
                                       (<= 0 temp___857)
                                       (<= temp___857 63))
                                     (= (to_rep1 (get temp___858 temp___857)) #x5C)) :pattern (
                                (get
                                  temp___858
                                  temp___857)) )))
                            (= temp___858 (ada___sparknacl__mac__hmac_sha_256__opad__aggregate_def
                                            #x5C)))
                          (forall ((opad map1))
                            (=>
                              (= opad temp___858)
                              (=>
                                (has_bounds opad 0 63)
                                (forall ((temp___865 map1))
                                  (=>
                                    (and
                                      (and
                                        (has_bounds temp___865 0 63)
                                        (forall ((temp___864 Int))
                                          (! (=>
                                               (and
                                                 (<= 0 temp___864)
                                                 (<= temp___864 63))
                                               (= (to_rep1
                                                    (get
                                                      temp___865
                                                      temp___864)) #x00)) :pattern (
                                          (get
                                            temp___865
                                            temp___864)) )))
                                      (= temp___865 (ada___sparknacl__mac__hmac_sha_256__key__aggregate_def
                                                      #x00)))
                                    (forall ((key map1))
                                      (=>
                                        (= key temp___865)
                                        (=>
                                          (has_bounds key 0 63)
                                          (forall ((key1 map1))
                                            (=>
                                              (exists ((spark__branch Bool))
                                                (and
                                                  (= spark__branch (ite (< 64 
                                                                    (length1
                                                                    k))
                                                                    true
                                                                    false))
                                                  (ite (= spark__branch true)
                                                    (let ((o k))
                                                      (let ((temp___869 
                                                        (hash
                                                          o)))
                                                        (and
                                                          (and
                                                            (hash__function_guard
                                                              temp___869
                                                              o)
                                                            (has_bounds
                                                              temp___869
                                                              0
                                                              31))
                                                          (exists ((usf map1))
                                                            (and
                                                              (forall 
                                                                ((temp___872 Int))
                                                                (ite 
                                                                  (and
                                                                    (<= 0 temp___872)
                                                                    (<= temp___872 31))
                                                                  (= 
                                                                  (get
                                                                    usf
                                                                    temp___872) 
                                                                  (get
                                                                    temp___869
                                                                    temp___872))
                                                                  (= 
                                                                  (get
                                                                    usf
                                                                    temp___872) 
                                                                  (get
                                                                    key
                                                                    temp___872))))
                                                              (= key1 usf))))))
                                                    (and
                                                      (<= (length1 k) 64)
                                                      (and
                                                        (ite (<= (first k) 
                                                          (last
                                                            k))
                                                          (<= (first k) 
                                                          (last
                                                            k))
                                                          (< (last k) 
                                                          (first
                                                            k)))
                                                        (let ((o (last k)))
                                                          (let ((o1 (first k)))
                                                            (let ((temp___879 
                                                              (last
                                                                k)))
                                                              (let ((temp___878 
                                                                (first
                                                                  k)))
                                                                (and
                                                                  (=>
                                                                    (<= temp___878 temp___879)
                                                                    (and
                                                                    (and
                                                                    (<= 0 temp___878)
                                                                    (<= temp___878 63))
                                                                    (and
                                                                    (<= 0 temp___879)
                                                                    (<= temp___879 63))))
                                                                  (and
                                                                    (ite (<= o1 o)
                                                                    (and
                                                                    (<= temp___878 temp___879)
                                                                    (= (- o o1) (- temp___879 temp___878)))
                                                                    (< temp___879 temp___878))
                                                                    (exists 
                                                                    ((usf map1))
                                                                    (and
                                                                    (forall 
                                                                    ((temp___882 Int))
                                                                    (ite 
                                                                    (and
                                                                    (<= 
                                                                    (first
                                                                    k) temp___882)
                                                                    (<= temp___882 
                                                                    (last
                                                                    k)))
                                                                    (= 
                                                                    (get
                                                                    usf
                                                                    temp___882) 
                                                                    (get
                                                                    (slide
                                                                    (to_array
                                                                    k)
                                                                    (first k)
                                                                    (first k))
                                                                    temp___882))
                                                                    (= 
                                                                    (get
                                                                    usf
                                                                    temp___882) 
                                                                    (get
                                                                    key
                                                                    temp___882))))
                                                                    (= key1 usf))))))))))))))
                                              (forall ((ipad1 map1) (opad1 map1))
                                                (=>
                                                  (exists ((i Int))
                                                    (and
                                                      (= i 0)
                                                      (ite (= (and (ite (<= 0 i)
                                                                    true
                                                                    false) 
                                                        (ite (<= i 63)
                                                          true
                                                          false)) true)
                                                        (exists ((ipad2 map1) (opad2 map1) (i1 Int))
                                                          (and
                                                            (= (and (ite 
                                                                    (and
                                                                    (and
                                                                    (and
                                                                    (has_bounds
                                                                    ipad2
                                                                    0
                                                                    63)
                                                                    (forall 
                                                                    ((temp___893 Int))
                                                                    (=>
                                                                    (and
                                                                    (<= 0 temp___893)
                                                                    (<= temp___893 63))
                                                                    (=>
                                                                    (or
                                                                    (< 63 temp___893)
                                                                    (or
                                                                    (< temp___893 0)
                                                                    (<= i1 temp___893)))
                                                                    (= 
                                                                    (get
                                                                    ipad2
                                                                    temp___893) 
                                                                    (get
                                                                    ipad
                                                                    temp___893))))))
                                                                    (has_bounds
                                                                    opad2
                                                                    0
                                                                    63))
                                                                    (forall 
                                                                    ((temp___896 Int))
                                                                    (=>
                                                                    (and
                                                                    (<= 0 temp___896)
                                                                    (<= temp___896 63))
                                                                    (=>
                                                                    (or
                                                                    (< 63 temp___896)
                                                                    (or
                                                                    (< temp___896 0)
                                                                    (<= i1 temp___896)))
                                                                    (= 
                                                                    (get
                                                                    opad2
                                                                    temp___896) 
                                                                    (get
                                                                    opad
                                                                    temp___896))))))
                                                                    true
                                                                    false) 
                                                            (ite (and
                                                                   (<= 0 i1)
                                                                   (<= i1 63))
                                                              true
                                                              false)) true)
                                                            (exists ((o (_ BitVec 8)))
                                                              (and
                                                                (= (to_rep1
                                                                    (get
                                                                    key1
                                                                    i1)) o)
                                                                (exists 
                                                                  ((o1 (_ BitVec 8)))
                                                                  (and
                                                                    (= 
                                                                    (to_rep1
                                                                    (get
                                                                    ipad2
                                                                    i1)) o1)
                                                                    (exists 
                                                                    ((o2 byte))
                                                                    (and
                                                                    (= 
                                                                    (to_rep1
                                                                    o2) (bvxor o1 o))
                                                                    (and
                                                                    (= ipad1 
                                                                    (set
                                                                    ipad2
                                                                    i1
                                                                    o2))
                                                                    (exists 
                                                                    ((o3 (_ BitVec 8)))
                                                                    (and
                                                                    (= 
                                                                    (to_rep1
                                                                    (get
                                                                    key1
                                                                    i1)) o3)
                                                                    (exists 
                                                                    ((o4 (_ BitVec 8)))
                                                                    (and
                                                                    (= 
                                                                    (to_rep1
                                                                    (get
                                                                    opad2
                                                                    i1)) o4)
                                                                    (exists 
                                                                    ((o5 byte))
                                                                    (and
                                                                    (= 
                                                                    (to_rep1
                                                                    o5) (bvxor o4 o3))
                                                                    (and
                                                                    (= opad1 
                                                                    (set
                                                                    opad2
                                                                    i1
                                                                    o5))
                                                                    (= i1 63)))))))))))))))))
                                                        (and
                                                          (= ipad1 ipad)
                                                          (= opad1 opad)))))
                                                  (<= 0 (- (+ 0 (+ (length
                                                                    0
                                                                    63) 
                                                  (length
                                                    (first m)
                                                    (last m)))) 1))))))))))))))))))))))))))))

(check-sat)
